\ENCODING=ISO-8859-1
\Problem name: IloCplex

Minimize
 obj1: 0 _e_t0_0_10 + 0 _e_t0_0_11 + 0 _e_t0_0_12 + 0 _e_t0_0_13 + 0 _e_t0_0_14
       + 0 _e_t0_0_15 + 0 _e_t0_0_16 + 0 _e_t0_0_17 + 0 _e_t0_0_18
       + 0 _e_t0_0_19 + 0 _e_t0_1_10 + 0 _e_t0_1_11 + 0 _e_t0_1_12
       + 0 _e_t0_1_13 + 0 _e_t0_1_14 + 0 _e_t0_1_15 + 0 _e_t0_1_16
       + 0 _e_t0_1_17 + 0 _e_t0_1_18 + 0 _e_t0_1_19 + 0 _e_t0_2_10
       + 0 _e_t0_2_11 + 0 _e_t0_2_12 + 0 _e_t0_2_13 + 0 _e_t0_2_14
       + 0 _e_t0_2_15 + 0 _e_t0_2_16 + 0 _e_t0_2_17 + 0 _e_t0_2_18
       + 0 _e_t0_2_19 + 0 _e_t0_3_10 + 0 _e_t0_3_11 + 0 _e_t0_3_12
       + 0 _e_t0_3_13 + 0 _e_t0_3_14 + 0 _e_t0_3_15 + 0 _e_t0_3_16
       + 0 _e_t0_3_17 + 0 _e_t0_3_18 + 0 _e_t0_3_19 + 0 _e_t0_4_10
       + 0 _e_t0_4_11 + 0 _e_t0_4_12 + 0 _e_t0_4_13 + 0 _e_t0_4_14
       + 0 _e_t0_4_15 + 0 _e_t0_4_16 + 0 _e_t0_4_17 + 0 _e_t0_4_18
       + 0 _e_t0_4_19 + 0 _e_t0_5_10 + 0 _e_t0_5_11 + 0 _e_t0_5_12
       + 0 _e_t0_5_13 + 0 _e_t0_5_14 + 0 _e_t0_5_15 + 0 _e_t0_5_16
       + 0 _e_t0_5_17 + 0 _e_t0_5_18 + 0 _e_t0_5_19 + 0 _e_t0_6_10
       + 0 _e_t0_6_11 + 0 _e_t0_6_12 + 0 _e_t0_6_13 + 0 _e_t0_6_14
       + 0 _e_t0_6_15 + 0 _e_t0_6_16 + 0 _e_t0_6_17 + 0 _e_t0_6_18
       + 0 _e_t0_6_19 + 0 _e_t0_7_10 + 0 _e_t0_7_11 + 0 _e_t0_7_12
       + 0 _e_t0_7_13 + 0 _e_t0_7_14 + 0 _e_t0_7_15 + 0 _e_t0_7_16
       + 0 _e_t0_7_17 + 0 _e_t0_7_18 + 0 _e_t0_7_19 + 0 _e_t0_8_10
       + 0 _e_t0_8_11 + 0 _e_t0_8_12 + 0 _e_t0_8_13 + 0 _e_t0_8_14
       + 0 _e_t0_8_15 + 0 _e_t0_8_16 + 0 _e_t0_8_17 + 0 _e_t0_8_18
       + 0 _e_t0_8_19 + 0 _e_t0_9_10 + 0 _e_t0_9_11 + 0 _e_t0_9_12
       + 0 _e_t0_9_13 + 0 _e_t0_9_14 + 0 _e_t0_9_15 + 0 _e_t0_9_16
       + 0 _e_t0_9_17 + 0 _e_t0_9_18 + 0 _e_t0_9_19 + 0 _e_t0_10_20
       + 0 _e_t0_10_24 + 0 _e_t0_10_25 + 0 _e_t0_10_26 + 0 _e_t0_10_27
       + 0 _e_t0_10_28 + 0 _e_t0_10_29 + 0 _e_t0_11_20 + 0 _e_t0_11_24
       + 0 _e_t0_11_25 + 0 _e_t0_11_26 + 0 _e_t0_11_27 + 0 _e_t0_11_28
       + 0 _e_t0_11_29 + 0 _e_t0_12_20 + 0 _e_t0_12_24 + 0 _e_t0_12_25
       + 0 _e_t0_12_26 + 0 _e_t0_12_27 + 0 _e_t0_12_28 + 0 _e_t0_12_29
       + 0 _e_t0_13_20 + 0 _e_t0_13_24 + 0 _e_t0_13_25 + 0 _e_t0_13_26
       + 0 _e_t0_13_27 + 0 _e_t0_13_28 + 0 _e_t0_13_29 + 0 _e_t0_14_20
       + 0 _e_t0_14_24 + 0 _e_t0_14_25 + 0 _e_t0_14_26 + 0 _e_t0_14_27
       + 0 _e_t0_14_28 + 0 _e_t0_14_29 + 0 _e_t0_15_20 + 0 _e_t0_15_24
       + 0 _e_t0_15_25 + 0 _e_t0_15_26 + 0 _e_t0_15_27 + 0 _e_t0_15_28
       + 0 _e_t0_15_29 + 0 _e_t0_16_20 + 0 _e_t0_16_24 + 0 _e_t0_16_25
       + 0 _e_t0_16_26 + 0 _e_t0_16_27 + 0 _e_t0_16_28 + 0 _e_t0_16_29
       + 0 _e_t0_17_20 + 0 _e_t0_17_24 + 0 _e_t0_17_25 + 0 _e_t0_17_26
       + 0 _e_t0_17_27 + 0 _e_t0_17_28 + 0 _e_t0_17_29 + 0 _e_t0_18_20
       + 0 _e_t0_18_24 + 0 _e_t0_18_25 + 0 _e_t0_18_26 + 0 _e_t0_18_27
       + 0 _e_t0_18_28 + 0 _e_t0_18_29 + 0 _e_t0_19_20 + 0 _e_t0_19_24
       + 0 _e_t0_19_25 + 0 _e_t0_19_26 + 0 _e_t0_19_27 + 0 _e_t0_19_28
       + 0 _e_t0_19_29
Subject To
 c1: - 10 _e_t0_10_21 - 10 _e_t0_10_22 - 10 _e_t0_10_23 - 10 _e_t0_11_21
     - 10 _e_t0_11_22 - 10 _e_t0_11_23 - 10 _e_t0_12_21 - 10 _e_t0_12_22
     - 10 _e_t0_12_23 - 10 _e_t0_13_21 - 10 _e_t0_13_22 - 10 _e_t0_13_23
     - 10 _e_t0_14_21 - 10 _e_t0_14_22 - 10 _e_t0_14_23 - 10 _e_t0_15_21
     - 10 _e_t0_15_22 - 10 _e_t0_15_23 - 10 _e_t0_16_21 - 10 _e_t0_16_22
     - 10 _e_t0_16_23 - 10 _e_t0_17_21 - 10 _e_t0_17_22 - 10 _e_t0_17_23
     - 10 _e_t0_18_21 - 10 _e_t0_18_22 - 10 _e_t0_18_23 - 10 _e_t0_19_21
     - 10 _e_t0_19_22 - 10 _e_t0_19_23 + x201 + 2 x202 + 4 x203 + 8 x204
     + 16 x205 + 32 x206 <= -1
Bounds
 0 <= _e_t0_0_10 <= 1
 0 <= _e_t0_0_11 <= 1
 0 <= _e_t0_0_12 <= 1
 0 <= _e_t0_0_13 <= 1
 0 <= _e_t0_0_14 <= 1
 0 <= _e_t0_0_15 <= 1
 0 <= _e_t0_0_16 <= 1
 0 <= _e_t0_0_17 <= 1
 0 <= _e_t0_0_18 <= 1
 0 <= _e_t0_0_19 <= 1
 0 <= _e_t0_1_10 <= 1
 0 <= _e_t0_1_11 <= 1
 0 <= _e_t0_1_12 <= 1
 0 <= _e_t0_1_13 <= 1
 0 <= _e_t0_1_14 <= 1
 0 <= _e_t0_1_15 <= 1
 0 <= _e_t0_1_16 <= 1
 0 <= _e_t0_1_17 <= 1
 0 <= _e_t0_1_18 <= 1
 0 <= _e_t0_1_19 <= 1
 0 <= _e_t0_2_10 <= 1
 0 <= _e_t0_2_11 <= 1
 0 <= _e_t0_2_12 <= 1
 0 <= _e_t0_2_13 <= 1
 0 <= _e_t0_2_14 <= 1
 0 <= _e_t0_2_15 <= 1
 0 <= _e_t0_2_16 <= 1
 0 <= _e_t0_2_17 <= 1
 0 <= _e_t0_2_18 <= 1
 0 <= _e_t0_2_19 <= 1
 0 <= _e_t0_3_10 <= 1
 0 <= _e_t0_3_11 <= 1
 0 <= _e_t0_3_12 <= 1
 0 <= _e_t0_3_13 <= 1
 0 <= _e_t0_3_14 <= 1
 0 <= _e_t0_3_15 <= 1
 0 <= _e_t0_3_16 <= 1
 0 <= _e_t0_3_17 <= 1
 0 <= _e_t0_3_18 <= 1
 0 <= _e_t0_3_19 <= 1
 0 <= _e_t0_4_10 <= 1
 0 <= _e_t0_4_11 <= 1
 0 <= _e_t0_4_12 <= 1
 0 <= _e_t0_4_13 <= 1
 0 <= _e_t0_4_14 <= 1
 0 <= _e_t0_4_15 <= 1
 0 <= _e_t0_4_16 <= 1
 0 <= _e_t0_4_17 <= 1
 0 <= _e_t0_4_18 <= 1
 0 <= _e_t0_4_19 <= 1
 0 <= _e_t0_5_10 <= 1
 0 <= _e_t0_5_11 <= 1
 0 <= _e_t0_5_12 <= 1
 0 <= _e_t0_5_13 <= 1
 0 <= _e_t0_5_14 <= 1
 0 <= _e_t0_5_15 <= 1
 0 <= _e_t0_5_16 <= 1
 0 <= _e_t0_5_17 <= 1
 0 <= _e_t0_5_18 <= 1
 0 <= _e_t0_5_19 <= 1
 0 <= _e_t0_6_10 <= 1
 0 <= _e_t0_6_11 <= 1
 0 <= _e_t0_6_12 <= 1
 0 <= _e_t0_6_13 <= 1
 0 <= _e_t0_6_14 <= 1
 0 <= _e_t0_6_15 <= 1
 0 <= _e_t0_6_16 <= 1
 0 <= _e_t0_6_17 <= 1
 0 <= _e_t0_6_18 <= 1
 0 <= _e_t0_6_19 <= 1
 0 <= _e_t0_7_10 <= 1
 0 <= _e_t0_7_11 <= 1
 0 <= _e_t0_7_12 <= 1
 0 <= _e_t0_7_13 <= 1
 0 <= _e_t0_7_14 <= 1
 0 <= _e_t0_7_15 <= 1
 0 <= _e_t0_7_16 <= 1
 0 <= _e_t0_7_17 <= 1
 0 <= _e_t0_7_18 <= 1
 0 <= _e_t0_7_19 <= 1
 0 <= _e_t0_8_10 <= 1
 0 <= _e_t0_8_11 <= 1
 0 <= _e_t0_8_12 <= 1
 0 <= _e_t0_8_13 <= 1
 0 <= _e_t0_8_14 <= 1
 0 <= _e_t0_8_15 <= 1
 0 <= _e_t0_8_16 <= 1
 0 <= _e_t0_8_17 <= 1
 0 <= _e_t0_8_18 <= 1
 0 <= _e_t0_8_19 <= 1
 0 <= _e_t0_9_10 <= 1
 0 <= _e_t0_9_11 <= 1
 0 <= _e_t0_9_12 <= 1
 0 <= _e_t0_9_13 <= 1
 0 <= _e_t0_9_14 <= 1
 0 <= _e_t0_9_15 <= 1
 0 <= _e_t0_9_16 <= 1
 0 <= _e_t0_9_17 <= 1
 0 <= _e_t0_9_18 <= 1
 0 <= _e_t0_9_19 <= 1
 0 <= _e_t0_10_20 <= 1
 0 <= _e_t0_10_21 <= 1
 0 <= _e_t0_10_22 <= 1
 0 <= _e_t0_10_23 <= 1
 0 <= _e_t0_10_24 <= 1
 0 <= _e_t0_10_25 <= 1
 0 <= _e_t0_10_26 <= 1
 0 <= _e_t0_10_27 <= 1
 0 <= _e_t0_10_28 <= 1
 0 <= _e_t0_10_29 <= 1
 0 <= _e_t0_11_20 <= 1
 0 <= _e_t0_11_21 <= 1
 0 <= _e_t0_11_22 <= 1
 0 <= _e_t0_11_23 <= 1
 0 <= _e_t0_11_24 <= 1
 0 <= _e_t0_11_25 <= 1
 0 <= _e_t0_11_26 <= 1
 0 <= _e_t0_11_27 <= 1
 0 <= _e_t0_11_28 <= 1
 0 <= _e_t0_11_29 <= 1
 0 <= _e_t0_12_20 <= 1
 0 <= _e_t0_12_21 <= 1
 0 <= _e_t0_12_22 <= 1
 0 <= _e_t0_12_23 <= 1
 0 <= _e_t0_12_24 <= 1
 0 <= _e_t0_12_25 <= 1
 0 <= _e_t0_12_26 <= 1
 0 <= _e_t0_12_27 <= 1
 0 <= _e_t0_12_28 <= 1
 0 <= _e_t0_12_29 <= 1
 0 <= _e_t0_13_20 <= 1
 0 <= _e_t0_13_21 <= 1
 0 <= _e_t0_13_22 <= 1
 0 <= _e_t0_13_23 <= 1
 0 <= _e_t0_13_24 <= 1
 0 <= _e_t0_13_25 <= 1
 0 <= _e_t0_13_26 <= 1
 0 <= _e_t0_13_27 <= 1
 0 <= _e_t0_13_28 <= 1
 0 <= _e_t0_13_29 <= 1
 0 <= _e_t0_14_20 <= 1
 0 <= _e_t0_14_21 <= 1
 0 <= _e_t0_14_22 <= 1
 0 <= _e_t0_14_23 <= 1
 0 <= _e_t0_14_24 <= 1
 0 <= _e_t0_14_25 <= 1
 0 <= _e_t0_14_26 <= 1
 0 <= _e_t0_14_27 <= 1
 0 <= _e_t0_14_28 <= 1
 0 <= _e_t0_14_29 <= 1
 0 <= _e_t0_15_20 <= 1
 0 <= _e_t0_15_21 <= 1
 0 <= _e_t0_15_22 <= 1
 0 <= _e_t0_15_23 <= 1
 0 <= _e_t0_15_24 <= 1
 0 <= _e_t0_15_25 <= 1
 0 <= _e_t0_15_26 <= 1
 0 <= _e_t0_15_27 <= 1
 0 <= _e_t0_15_28 <= 1
 0 <= _e_t0_15_29 <= 1
 0 <= _e_t0_16_20 <= 1
 0 <= _e_t0_16_21 <= 1
 0 <= _e_t0_16_22 <= 1
 0 <= _e_t0_16_23 <= 1
 0 <= _e_t0_16_24 <= 1
 0 <= _e_t0_16_25 <= 1
 0 <= _e_t0_16_26 <= 1
 0 <= _e_t0_16_27 <= 1
 0 <= _e_t0_16_28 <= 1
 0 <= _e_t0_16_29 <= 1
 0 <= _e_t0_17_20 <= 1
 0 <= _e_t0_17_21 <= 1
 0 <= _e_t0_17_22 <= 1
 0 <= _e_t0_17_23 <= 1
 0 <= _e_t0_17_24 <= 1
 0 <= _e_t0_17_25 <= 1
 0 <= _e_t0_17_26 <= 1
 0 <= _e_t0_17_27 <= 1
 0 <= _e_t0_17_28 <= 1
 0 <= _e_t0_17_29 <= 1
 0 <= _e_t0_18_20 <= 1
 0 <= _e_t0_18_21 <= 1
 0 <= _e_t0_18_22 <= 1
 0 <= _e_t0_18_23 <= 1
 0 <= _e_t0_18_24 <= 1
 0 <= _e_t0_18_25 <= 1
 0 <= _e_t0_18_26 <= 1
 0 <= _e_t0_18_27 <= 1
 0 <= _e_t0_18_28 <= 1
 0 <= _e_t0_18_29 <= 1
 0 <= _e_t0_19_20 <= 1
 0 <= _e_t0_19_21 <= 1
 0 <= _e_t0_19_22 <= 1
 0 <= _e_t0_19_23 <= 1
 0 <= _e_t0_19_24 <= 1
 0 <= _e_t0_19_25 <= 1
 0 <= _e_t0_19_26 <= 1
 0 <= _e_t0_19_27 <= 1
 0 <= _e_t0_19_28 <= 1
 0 <= _e_t0_19_29 <= 1
 0 <= x201 <= 1
 0 <= x202 <= 1
 0 <= x203 <= 1
 0 <= x204 <= 1
 0 <= x205 <= 1
 0 <= x206 <= 1
Binaries
 _e_t0_0_10  _e_t0_0_11  _e_t0_0_12  _e_t0_0_13  _e_t0_0_14  _e_t0_0_15 
 _e_t0_0_16  _e_t0_0_17  _e_t0_0_18  _e_t0_0_19  _e_t0_1_10  _e_t0_1_11 
 _e_t0_1_12  _e_t0_1_13  _e_t0_1_14  _e_t0_1_15  _e_t0_1_16  _e_t0_1_17 
 _e_t0_1_18  _e_t0_1_19  _e_t0_2_10  _e_t0_2_11  _e_t0_2_12  _e_t0_2_13 
 _e_t0_2_14  _e_t0_2_15  _e_t0_2_16  _e_t0_2_17  _e_t0_2_18  _e_t0_2_19 
 _e_t0_3_10  _e_t0_3_11  _e_t0_3_12  _e_t0_3_13  _e_t0_3_14  _e_t0_3_15 
 _e_t0_3_16  _e_t0_3_17  _e_t0_3_18  _e_t0_3_19  _e_t0_4_10  _e_t0_4_11 
 _e_t0_4_12  _e_t0_4_13  _e_t0_4_14  _e_t0_4_15  _e_t0_4_16  _e_t0_4_17 
 _e_t0_4_18  _e_t0_4_19  _e_t0_5_10  _e_t0_5_11  _e_t0_5_12  _e_t0_5_13 
 _e_t0_5_14  _e_t0_5_15  _e_t0_5_16  _e_t0_5_17  _e_t0_5_18  _e_t0_5_19 
 _e_t0_6_10  _e_t0_6_11  _e_t0_6_12  _e_t0_6_13  _e_t0_6_14  _e_t0_6_15 
 _e_t0_6_16  _e_t0_6_17  _e_t0_6_18  _e_t0_6_19  _e_t0_7_10  _e_t0_7_11 
 _e_t0_7_12  _e_t0_7_13  _e_t0_7_14  _e_t0_7_15  _e_t0_7_16  _e_t0_7_17 
 _e_t0_7_18  _e_t0_7_19  _e_t0_8_10  _e_t0_8_11  _e_t0_8_12  _e_t0_8_13 
 _e_t0_8_14  _e_t0_8_15  _e_t0_8_16  _e_t0_8_17  _e_t0_8_18  _e_t0_8_19 
 _e_t0_9_10  _e_t0_9_11  _e_t0_9_12  _e_t0_9_13  _e_t0_9_14  _e_t0_9_15 
 _e_t0_9_16  _e_t0_9_17  _e_t0_9_18  _e_t0_9_19  _e_t0_10_20  _e_t0_10_21 
 _e_t0_10_22  _e_t0_10_23  _e_t0_10_24  _e_t0_10_25  _e_t0_10_26  _e_t0_10_27 
 _e_t0_10_28  _e_t0_10_29  _e_t0_11_20  _e_t0_11_21  _e_t0_11_22  _e_t0_11_23 
 _e_t0_11_24  _e_t0_11_25  _e_t0_11_26  _e_t0_11_27  _e_t0_11_28  _e_t0_11_29 
 _e_t0_12_20  _e_t0_12_21  _e_t0_12_22  _e_t0_12_23  _e_t0_12_24  _e_t0_12_25 
 _e_t0_12_26  _e_t0_12_27  _e_t0_12_28  _e_t0_12_29  _e_t0_13_20  _e_t0_13_21 
 _e_t0_13_22  _e_t0_13_23  _e_t0_13_24  _e_t0_13_25  _e_t0_13_26  _e_t0_13_27 
 _e_t0_13_28  _e_t0_13_29  _e_t0_14_20  _e_t0_14_21  _e_t0_14_22  _e_t0_14_23 
 _e_t0_14_24  _e_t0_14_25  _e_t0_14_26  _e_t0_14_27  _e_t0_14_28  _e_t0_14_29 
 _e_t0_15_20  _e_t0_15_21  _e_t0_15_22  _e_t0_15_23  _e_t0_15_24  _e_t0_15_25 
 _e_t0_15_26  _e_t0_15_27  _e_t0_15_28  _e_t0_15_29  _e_t0_16_20  _e_t0_16_21 
 _e_t0_16_22  _e_t0_16_23  _e_t0_16_24  _e_t0_16_25  _e_t0_16_26  _e_t0_16_27 
 _e_t0_16_28  _e_t0_16_29  _e_t0_17_20  _e_t0_17_21  _e_t0_17_22  _e_t0_17_23 
 _e_t0_17_24  _e_t0_17_25  _e_t0_17_26  _e_t0_17_27  _e_t0_17_28  _e_t0_17_29 
 _e_t0_18_20  _e_t0_18_21  _e_t0_18_22  _e_t0_18_23  _e_t0_18_24  _e_t0_18_25 
 _e_t0_18_26  _e_t0_18_27  _e_t0_18_28  _e_t0_18_29  _e_t0_19_20  _e_t0_19_21 
 _e_t0_19_22  _e_t0_19_23  _e_t0_19_24  _e_t0_19_25  _e_t0_19_26  _e_t0_19_27 
 _e_t0_19_28  _e_t0_19_29  x201  x202  x203  x204  x205  x206 
End
